ssat_solver_solve2
#level: 2
Abc_NtkNodeNum(s->pNtk): 570  , BDD limit: 10240
level 1: 10 element
Exist
existence_eliminate_scope
Abc_NtkIsBddLogic(pNtk): 0
Abc_NtkIsStrash(pNtk): 1
existence_eliminate_scope_aig
exist by BDD failed
Abc_NtkNodeNum(s->pNtk): 12437  , BDD limit: 14924
Build BDD success
level 0: 10 element
Random
c ssat solving in ABC
#var: 20
s SATISFIABLE
  > Upper bound = 9.765625e-01
  > Lower bound = 9.765625e-01
FINISHED CPU 0.12 MEM 61372 MAXMEM 61372 STALE 0 MAXMEM_RSS 18404
<time name="ALL">190</time>
real 0.31
user 0.29
sys 0.13
